NAME : XML100_3136_03
DIMENSION : 101
NB_CLUSTERS : 16
CLUSTERING_ALG : DBSCAN
CLUSTERING_PARAMS : eps(95), minSamples(3)
CLUSTERS
1 0
2 1 8 15 32 36 43 52 65 69 70 74 75 91 94
3 4 6 25 44 64 82
4 5 7 11 31 40 41 46 47 51 56 57 68 71 83 90 93
5 3 9 30 33 53 62 76 81 89 100
6 12 24 45
7 14 16 18 19 38 72 73 88 92 96
8 20 23 50 61 79 99
9 21 27 85
10 2 22 29 60 84
11 26 28 49 59 95 98
12 35 37 54 97
13 55 66 78 80 87
14 13 34 39 48 58 63 67 86
15 10 42
16 17 77
EOF